************************************************************************
file with basedata            : mm48_.bas
initial value random generator: 969271343
************************************************************************
projects                      :  1
jobs (incl. supersource/sink ):  12
horizon                       :  78
RESOURCES
  - renewable                 :  2   R
  - nonrenewable              :  2   N
  - doubly constrained        :  0   D
************************************************************************
PROJECT INFORMATION:
pronr.  #jobs rel.date duedate tardcost  MPM-Time
    1     10      0       13        4       13
************************************************************************
PRECEDENCE RELATIONS:
jobnr.    #modes  #successors   successors
   0        1          3           1   2   3
   1        3          1           9
   2        3          2           5   6
   3        3          3           4   7   9
   4        3          1           6
   5        3          1           8
   6        3          2           8  10
   7        3          2           8  10
   8        3          1          11
   9        3          1          11
  10        3          1          11
  11        1          0        
************************************************************************
REQUESTS/DURATIONS:
jobnr. mode duration  R 1  R 2  R 3  R 4  E(W 1)  E(W 2)
------------------------------------------------------------------------
  0      1     0       0    0    0    0     0       0
  1      1     6       4    9    9    4    78      78
  2      1     1       5    4    3    4     9       7
  3      1     3       8    3    5    8    33      39
  4      1     2       7    6    8    6    26      28
  5      1     4       4    8    2    9    48      44
  6      1     2       2    5    8    7    14      30
  7      1     6       6    9    7    9    90      96
  8      1     2       8    8    7    5    32      24
  9      1     1       7    9    4    2    16       6
 10      1     4       7    3   10    9    40      76
 11      1     0       0    0    0    0     0       0
************************************************************************
RESOURCEAVAILABILITIES:
  R 1  R 2
   35   128
************************************************************************
RESOURCE LIMITS:
jobnr.  l(R 1)  u(R 1)  l(R 2)  u(R 2)
------------------------------------------------------------------------
  0        0       0       0       0
  1        7      13       7      13
  2        5       9       4       7
  3        6      11       7      13
  4        7      13       7      14
  5        6      12       6      11
  6        4       7       8      15
  7        8      15       9      16
  8        8      16       7      12
  9        9      16       3       6
 10        6      10      10      19
 11        0       0       0       0
************************************************************************
SCENARIOS:
------------------------------------------------------------------------
RESOURCE k = 1
s = 1: (0, 64, 8, 29, 24, 48, 22, 98, 26, 21, 31, 0)
s = 2: (0, 90, 8, 21, 20, 37, 12, 103, 43, 15, 42, 0)
s = 3: (0, 105, 8, 23, 17, 36, 14, 85, 20, 19, 26, 0)
s = 4: (0, 49, 9, 46, 25, 66, 12, 105, 22, 13, 27, 0)
s = 5: (0, 75, 10, 25, 21, 31, 12, 113, 24, 15, 32, 0)
s = 6: (0, 86, 6, 33, 24, 29, 14, 51, 26, 31, 44, 0)
s = 7: (0, 56, 8, 26, 36, 54, 24, 79, 24, 20, 44, 0)
s = 8: (0, 73, 11, 28, 25, 48, 14, 72, 21, 22, 58, 0)
s = 9: (0, 57, 8, 26, 33, 28, 8, 77, 34, 12, 22, 0)
s = 10: (0, 85, 12, 23, 20, 36, 13, 89, 45, 13, 43, 0)
s = 11: (0, 63, 10, 22, 29, 63, 11, 116, 20, 15, 25, 0)
s = 12: (0, 60, 8, 43, 16, 42, 11, 126, 31, 15, 56, 0)
s = 13: (0, 71, 11, 31, 17, 29, 21, 85, 23, 28, 41, 0)
s = 14: (0, 55, 11, 27, 22, 61, 25, 64, 24, 20, 41, 0)
s = 15: (0, 90, 11, 25, 22, 33, 19, 79, 46, 16, 43, 0)
s = 16: (0, 110, 6, 38, 33, 53, 18, 73, 19, 29, 66, 0)
s = 17: (0, 92, 7, 30, 35, 50, 13, 129, 25, 11, 43, 0)
s = 18: (0, 98, 7, 34, 19, 61, 23, 99, 51, 20, 33, 0)
s = 19: (0, 73, 12, 21, 39, 36, 13, 61, 28, 18, 31, 0)
s = 20: (0, 94, 10, 47, 20, 34, 10, 68, 28, 18, 43, 0)
s = 21: (0, 71, 6, 26, 18, 48, 14, 77, 33, 22, 31, 0)
s = 22: (0, 83, 6, 22, 32, 32, 19, 102, 33, 15, 31, 0)
s = 23: (0, 82, 8, 29, 30, 52, 15, 72, 22, 11, 35, 0)
s = 24: (0, 47, 8, 24, 45, 31, 16, 57, 39, 25, 30, 0)
s = 25: (0, 118, 11, 28, 21, 54, 13, 72, 42, 16, 28, 0)
s = 26: (0, 72, 13, 42, 30, 56, 21, 66, 46, 14, 45, 0)
s = 27: (0, 95, 10, 36, 21, 37, 14, 129, 35, 10, 32, 0)
s = 28: (0, 87, 7, 21, 31, 35, 17, 86, 53, 21, 40, 0)
s = 29: (0, 77, 11, 34, 18, 63, 12, 145, 24, 20, 43, 0)
s = 30: (0, 60, 7, 34, 37, 59, 20, 107, 23, 10, 62, 0)
s = 31: (0, 85, 9, 28, 20, 49, 20, 135, 40, 15, 53, 0)
s = 32: (0, 77, 6, 46, 23, 66, 22, 76, 21, 22, 61, 0)
s = 33: (0, 60, 12, 33, 44, 67, 10, 79, 37, 13, 38, 0)
s = 34: (0, 115, 9, 50, 24, 32, 12, 61, 43, 11, 51, 0)
s = 35: (0, 62, 9, 32, 32, 66, 13, 122, 25, 15, 72, 0)
s = 36: (0, 129, 6, 21, 25, 50, 8, 94, 48, 16, 23, 0)
s = 37: (0, 42, 9, 42, 19, 65, 17, 116, 32, 13, 42, 0)
s = 38: (0, 80, 7, 49, 29, 48, 18, 74, 33, 12, 59, 0)
s = 39: (0, 85, 15, 28, 30, 40, 18, 95, 27, 18, 36, 0)
s = 40: (0, 97, 10, 29, 20, 50, 10, 104, 24, 23, 33, 0)
s = 41: (0, 80, 6, 23, 27, 52, 11, 54, 28, 10, 43, 0)
s = 42: (0, 79, 9, 46, 25, 48, 15, 68, 42, 16, 54, 0)
s = 43: (0, 74, 10, 25, 20, 67, 20, 122, 26, 19, 51, 0)
s = 44: (0, 113, 8, 33, 17, 39, 13, 138, 28, 10, 54, 0)
s = 45: (0, 52, 6, 30, 17, 57, 9, 63, 22, 18, 39, 0)
s = 46: (0, 61, 9, 24, 15, 71, 10, 120, 29, 17, 31, 0)
s = 47: (0, 80, 8, 26, 16, 39, 10, 129, 41, 13, 47, 0)
s = 48: (0, 46, 6, 47, 21, 67, 18, 76, 18, 22, 36, 0)
s = 49: (0, 103, 12, 37, 24, 44, 17, 66, 26, 10, 43, 0)
s = 50: (0, 88, 10, 55, 29, 32, 13, 97, 29, 16, 43, 0)
s = 51: (0, 89, 10, 40, 32, 27, 15, 71, 54, 23, 35, 0)
s = 52: (0, 71, 12, 20, 25, 28, 9, 59, 53, 17, 33, 0)
s = 53: (0, 71, 6, 36, 21, 54, 19, 74, 36, 18, 36, 0)
s = 54: (0, 72, 6, 32, 35, 52, 10, 93, 24, 27, 42, 0)
s = 55: (0, 64, 13, 37, 20, 59, 11, 68, 48, 20, 39, 0)
s = 56: (0, 58, 5, 38, 25, 68, 14, 65, 31, 19, 32, 0)
s = 57: (0, 66, 10, 22, 20, 49, 13, 59, 29, 14, 40, 0)
s = 58: (0, 44, 9, 23, 25, 32, 16, 85, 47, 15, 33, 0)
s = 59: (0, 101, 10, 35, 17, 83, 14, 88, 23, 12, 25, 0)
s = 60: (0, 68, 9, 32, 29, 36, 27, 86, 51, 17, 31, 0)
s = 61: (0, 98, 10, 45, 22, 43, 17, 107, 40, 22, 44, 0)
s = 62: (0, 114, 10, 37, 26, 61, 16, 139, 44, 14, 60, 0)
s = 63: (0, 84, 12, 32, 17, 41, 14, 59, 38, 11, 28, 0)
s = 64: (0, 81, 14, 27, 20, 60, 15, 124, 51, 14, 42, 0)
s = 65: (0, 124, 17, 27, 18, 47, 16, 70, 48, 11, 28, 0)
s = 66: (0, 64, 12, 24, 28, 64, 14, 55, 37, 25, 42, 0)
s = 67: (0, 103, 11, 29, 25, 50, 12, 78, 27, 11, 24, 0)
s = 68: (0, 109, 11, 35, 25, 54, 16, 89, 25, 13, 53, 0)
s = 69: (0, 46, 7, 35, 22, 43, 10, 59, 26, 10, 40, 0)
s = 70: (0, 97, 8, 32, 31, 55, 18, 80, 39, 14, 49, 0)
s = 71: (0, 57, 10, 46, 34, 38, 14, 57, 49, 11, 25, 0)
s = 72: (0, 84, 9, 39, 17, 29, 8, 96, 32, 26, 30, 0)
s = 73: (0, 80, 7, 18, 34, 35, 21, 73, 30, 21, 33, 0)
s = 74: (0, 121, 6, 60, 39, 32, 16, 123, 49, 15, 35, 0)
s = 75: (0, 59, 9, 34, 19, 56, 13, 73, 29, 20, 66, 0)
s = 76: (0, 70, 12, 32, 20, 48, 9, 83, 42, 12, 37, 0)
s = 77: (0, 75, 13, 20, 21, 35, 13, 77, 28, 16, 29, 0)
s = 78: (0, 72, 11, 28, 17, 57, 9, 86, 63, 14, 39, 0)
s = 79: (0, 65, 10, 35, 26, 60, 17, 64, 26, 14, 41, 0)
s = 80: (0, 78, 12, 32, 22, 44, 12, 91, 30, 16, 33, 0)
s = 81: (0, 85, 15, 35, 41, 52, 9, 103, 32, 11, 40, 0)
s = 82: (0, 108, 10, 30, 18, 48, 18, 78, 28, 17, 25, 0)
s = 83: (0, 82, 7, 36, 18, 46, 13, 72, 48, 13, 23, 0)
s = 84: (0, 71, 11, 42, 26, 54, 9, 93, 32, 12, 50, 0)
s = 85: (0, 65, 8, 29, 25, 29, 14, 68, 32, 10, 49, 0)
s = 86: (0, 98, 10, 29, 34, 56, 13, 81, 45, 19, 48, 0)
s = 87: (0, 74, 7, 31, 21, 48, 17, 79, 18, 18, 53, 0)
s = 88: (0, 63, 9, 51, 29, 36, 12, 105, 24, 15, 33, 0)
s = 89: (0, 55, 10, 22, 34, 55, 13, 125, 33, 19, 38, 0)
s = 90: (0, 93, 9, 33, 33, 30, 13, 77, 37, 17, 44, 0)
s = 91: (0, 73, 8, 29, 19, 27, 8, 118, 36, 13, 58, 0)
s = 92: (0, 67, 8, 25, 48, 69, 14, 181, 44, 11, 45, 0)
s = 93: (0, 89, 12, 26, 33, 73, 10, 123, 28, 13, 25, 0)
s = 94: (0, 58, 14, 24, 14, 31, 15, 81, 39, 22, 29, 0)
s = 95: (0, 90, 10, 56, 23, 42, 13, 78, 37, 14, 27, 0)
s = 96: (0, 114, 8, 49, 21, 36, 8, 130, 26, 12, 36, 0)
s = 97: (0, 93, 7, 19, 23, 54, 22, 80, 41, 12, 37, 0)
s = 98: (0, 123, 5, 37, 20, 39, 21, 120, 55, 10, 49, 0)
s = 99: (0, 48, 9, 28, 48, 35, 16, 84, 22, 10, 32, 0)
s = 100: (0, 85, 11, 36, 18, 59, 14, 118, 44, 20, 46, 0)
s = 101: (0, 82, 9, 50, 26, 51, 13, 69, 24, 21, 37, 0)
s = 102: (0, 103, 12, 25, 38, 33, 18, 62, 43, 11, 36, 0)
s = 103: (0, 60, 6, 20, 25, 35, 15, 75, 37, 10, 38, 0)
s = 104: (0, 51, 11, 23, 28, 56, 10, 49, 36, 12, 43, 0)
s = 105: (0, 91, 8, 19, 28, 41, 19, 83, 24, 22, 33, 0)
s = 106: (0, 61, 9, 21, 29, 65, 14, 110, 30, 13, 27, 0)
s = 107: (0, 62, 6, 21, 22, 62, 9, 62, 42, 13, 60, 0)
s = 108: (0, 71, 14, 24, 52, 51, 14, 131, 37, 22, 32, 0)
s = 109: (0, 86, 10, 40, 43, 45, 15, 92, 48, 10, 31, 0)
s = 110: (0, 81, 12, 30, 25, 38, 9, 114, 35, 17, 60, 0)
s = 111: (0, 81, 10, 34, 27, 72, 16, 93, 30, 18, 30, 0)
s = 112: (0, 135, 8, 30, 27, 30, 15, 86, 28, 12, 41, 0)
s = 113: (0, 115, 10, 38, 26, 67, 19, 71, 31, 20, 30, 0)
s = 114: (0, 118, 7, 25, 44, 45, 20, 115, 52, 16, 44, 0)
s = 115: (0, 57, 7, 51, 34, 61, 18, 111, 43, 11, 41, 0)
s = 116: (0, 73, 9, 25, 35, 33, 21, 123, 30, 23, 52, 0)
s = 117: (0, 84, 14, 46, 25, 76, 14, 67, 24, 17, 41, 0)
s = 118: (0, 100, 8, 39, 32, 29, 14, 146, 25, 12, 32, 0)
s = 119: (0, 59, 11, 19, 27, 35, 13, 50, 43, 18, 39, 0)
s = 120: (0, 101, 7, 40, 23, 62, 10, 64, 29, 16, 31, 0)
s = 121: (0, 102, 11, 32, 31, 48, 15, 52, 33, 18, 32, 0)
s = 122: (0, 45, 6, 49, 20, 36, 14, 123, 43, 11, 36, 0)
s = 123: (0, 119, 13, 18, 16, 47, 16, 65, 35, 20, 24, 0)
s = 124: (0, 48, 9, 26, 42, 44, 14, 75, 27, 14, 46, 0)
s = 125: (0, 90, 14, 20, 33, 68, 16, 88, 23, 11, 26, 0)
s = 126: (0, 100, 7, 31, 15, 54, 13, 57, 24, 14, 50, 0)
s = 127: (0, 66, 7, 19, 37, 37, 16, 97, 53, 14, 23, 0)
s = 128: (0, 86, 13, 54, 21, 44, 26, 131, 20, 14, 37, 0)
s = 129: (0, 82, 6, 36, 25, 60, 10, 123, 19, 19, 38, 0)
s = 130: (0, 67, 9, 53, 24, 58, 14, 90, 28, 23, 25, 0)
s = 131: (0, 68, 8, 28, 16, 65, 11, 75, 32, 25, 54, 0)
s = 132: (0, 72, 11, 29, 41, 60, 20, 76, 24, 17, 62, 0)
s = 133: (0, 105, 11, 43, 44, 39, 9, 144, 42, 15, 27, 0)
s = 134: (0, 79, 10, 34, 16, 49, 12, 102, 34, 15, 45, 0)
s = 135: (0, 78, 8, 29, 24, 33, 17, 102, 30, 19, 41, 0)
s = 136: (0, 81, 5, 32, 22, 60, 12, 60, 18, 10, 34, 0)
s = 137: (0, 70, 9, 37, 19, 38, 15, 62, 23, 27, 41, 0)
s = 138: (0, 59, 12, 43, 37, 42, 12, 88, 27, 15, 36, 0)
s = 139: (0, 121, 14, 30, 20, 42, 11, 150, 52, 19, 36, 0)
s = 140: (0, 98, 13, 28, 31, 62, 9, 61, 27, 17, 28, 0)
s = 141: (0, 66, 17, 50, 19, 33, 10, 77, 44, 17, 30, 0)
s = 142: (0, 63, 7, 25, 26, 52, 16, 96, 41, 25, 33, 0)
s = 143: (0, 84, 13, 31, 26, 34, 12, 83, 40, 17, 50, 0)
s = 144: (0, 98, 10, 34, 20, 38, 16, 97, 39, 15, 52, 0)
s = 145: (0, 96, 9, 39, 21, 57, 19, 132, 28, 27, 58, 0)
s = 146: (0, 46, 8, 43, 26, 47, 21, 81, 48, 21, 26, 0)
s = 147: (0, 51, 10, 26, 18, 46, 19, 102, 38, 13, 37, 0)
s = 148: (0, 94, 7, 32, 18, 41, 12, 70, 23, 21, 61, 0)
s = 149: (0, 44, 14, 57, 19, 29, 21, 123, 29, 24, 27, 0)
s = 150: (0, 113, 9, 33, 24, 36, 17, 61, 37, 20, 33, 0)
s = 151: (0, 105, 8, 32, 19, 45, 15, 114, 45, 14, 42, 0)
s = 152: (0, 95, 13, 46, 16, 38, 13, 92, 29, 17, 30, 0)
s = 153: (0, 43, 7, 31, 30, 38, 9, 124, 24, 13, 31, 0)
s = 154: (0, 81, 9, 26, 15, 47, 22, 104, 33, 20, 46, 0)
s = 155: (0, 64, 11, 21, 21, 55, 8, 58, 35, 15, 28, 0)
s = 156: (0, 112, 13, 36, 28, 63, 8, 91, 29, 12, 36, 0)
s = 157: (0, 71, 8, 42, 23, 66, 10, 63, 27, 14, 31, 0)
s = 158: (0, 105, 8, 27, 32, 72, 18, 91, 26, 10, 37, 0)
s = 159: (0, 63, 8, 23, 46, 35, 11, 123, 18, 10, 25, 0)
s = 160: (0, 64, 11, 56, 19, 59, 11, 99, 48, 18, 49, 0)
s = 161: (0, 82, 12, 29, 36, 57, 15, 140, 33, 14, 38, 0)
s = 162: (0, 67, 6, 32, 32, 48, 18, 68, 33, 24, 42, 0)
s = 163: (0, 94, 10, 34, 28, 39, 12, 94, 37, 15, 43, 0)
s = 164: (0, 92, 10, 24, 38, 49, 12, 76, 28, 22, 35, 0)
s = 165: (0, 59, 8, 38, 33, 33, 9, 94, 40, 11, 35, 0)
s = 166: (0, 89, 6, 27, 20, 63, 12, 97, 32, 16, 36, 0)
s = 167: (0, 60, 7, 28, 35, 58, 16, 83, 40, 11, 32, 0)
s = 168: (0, 94, 9, 45, 27, 49, 12, 128, 30, 12, 61, 0)
s = 169: (0, 95, 8, 34, 40, 37, 16, 98, 32, 13, 32, 0)
s = 170: (0, 57, 9, 35, 33, 56, 10, 66, 38, 19, 22, 0)
s = 171: (0, 69, 15, 37, 21, 42, 17, 82, 48, 16, 46, 0)
s = 172: (0, 116, 9, 42, 18, 37, 17, 139, 21, 13, 46, 0)
s = 173: (0, 106, 11, 24, 22, 72, 16, 90, 26, 23, 26, 0)
s = 174: (0, 73, 8, 27, 20, 73, 14, 71, 30, 21, 28, 0)
s = 175: (0, 66, 10, 31, 26, 54, 16, 108, 49, 20, 47, 0)
s = 176: (0, 96, 10, 25, 18, 39, 11, 111, 36, 17, 40, 0)
s = 177: (0, 75, 12, 20, 25, 49, 10, 74, 34, 19, 37, 0)
s = 178: (0, 92, 16, 26, 22, 51, 15, 57, 42, 21, 46, 0)
s = 179: (0, 88, 12, 24, 30, 45, 14, 93, 30, 9, 29, 0)
s = 180: (0, 66, 11, 43, 24, 73, 14, 78, 25, 11, 24, 0)
s = 181: (0, 81, 5, 39, 29, 62, 17, 103, 25, 15, 50, 0)
s = 182: (0, 60, 7, 27, 21, 48, 13, 57, 42, 19, 30, 0)
s = 183: (0, 54, 14, 32, 27, 51, 15, 58, 50, 19, 38, 0)
s = 184: (0, 68, 9, 49, 35, 58, 12, 91, 30, 26, 22, 0)
s = 185: (0, 85, 9, 44, 30, 40, 13, 68, 36, 11, 38, 0)
s = 186: (0, 103, 9, 38, 18, 38, 10, 80, 27, 10, 64, 0)
s = 187: (0, 115, 9, 33, 37, 37, 18, 142, 48, 19, 48, 0)
s = 188: (0, 95, 8, 27, 20, 69, 14, 81, 35, 19, 61, 0)
s = 189: (0, 63, 16, 46, 20, 38, 16, 62, 38, 16, 63, 0)
s = 190: (0, 72, 10, 35, 23, 58, 17, 64, 38, 14, 43, 0)
s = 191: (0, 50, 10, 43, 21, 54, 23, 97, 44, 14, 56, 0)
s = 192: (0, 96, 8, 43, 24, 44, 23, 63, 48, 21, 30, 0)
s = 193: (0, 54, 8, 53, 35, 33, 23, 113, 27, 17, 40, 0)
s = 194: (0, 92, 6, 32, 26, 45, 11, 122, 34, 10, 48, 0)
s = 195: (0, 70, 8, 44, 20, 37, 12, 58, 24, 16, 40, 0)
s = 196: (0, 72, 12, 24, 34, 36, 13, 92, 38, 16, 39, 0)
s = 197: (0, 59, 8, 24, 40, 31, 8, 75, 28, 11, 58, 0)
s = 198: (0, 99, 12, 43, 20, 55, 13, 119, 55, 17, 32, 0)
s = 199: (0, 70, 7, 29, 17, 36, 12, 95, 42, 10, 47, 0)
s = 200: (0, 123, 11, 53, 23, 34, 8, 84, 24, 15, 39, 0)
------------------------------------------------------------------------
RESOURCE k = 2
s = 1: (0, 64, 6, 34, 26, 44, 47, 104, 19, 8, 59, 0)
s = 2: (0, 90, 6, 25, 21, 34, 24, 110, 32, 6, 80, 0)
s = 3: (0, 105, 7, 27, 18, 33, 30, 90, 15, 7, 48, 0)
s = 4: (0, 49, 7, 54, 27, 61, 25, 112, 16, 5, 50, 0)
s = 5: (0, 75, 8, 29, 23, 29, 25, 121, 18, 6, 60, 0)
s = 6: (0, 86, 5, 39, 26, 27, 30, 54, 19, 12, 83, 0)
s = 7: (0, 56, 7, 30, 39, 50, 51, 84, 18, 8, 84, 0)
s = 8: (0, 73, 8, 33, 27, 44, 29, 77, 16, 9, 111, 0)
s = 9: (0, 57, 6, 30, 35, 26, 17, 82, 26, 5, 41, 0)
s = 10: (0, 85, 9, 27, 21, 33, 28, 95, 34, 5, 82, 0)
s = 11: (0, 63, 8, 26, 32, 58, 24, 124, 15, 6, 47, 0)
s = 12: (0, 60, 6, 51, 17, 39, 22, 134, 24, 6, 106, 0)
s = 13: (0, 71, 9, 37, 18, 27, 45, 91, 18, 11, 78, 0)
s = 14: (0, 55, 8, 32, 23, 56, 52, 68, 18, 8, 78, 0)
s = 15: (0, 90, 9, 29, 23, 30, 40, 84, 34, 6, 81, 0)
s = 16: (0, 110, 5, 45, 35, 49, 38, 78, 15, 11, 124, 0)
s = 17: (0, 92, 6, 36, 37, 46, 28, 137, 19, 4, 81, 0)
s = 18: (0, 98, 6, 41, 21, 56, 49, 106, 38, 8, 63, 0)
s = 19: (0, 73, 10, 25, 42, 33, 28, 65, 21, 7, 59, 0)
s = 20: (0, 94, 8, 56, 22, 31, 22, 72, 21, 7, 80, 0)
s = 21: (0, 71, 5, 31, 19, 44, 30, 82, 25, 8, 59, 0)
s = 22: (0, 83, 5, 26, 34, 29, 41, 108, 25, 6, 58, 0)
s = 23: (0, 82, 6, 34, 32, 47, 32, 77, 16, 4, 66, 0)
s = 24: (0, 47, 6, 29, 49, 28, 34, 60, 29, 10, 56, 0)
s = 25: (0, 118, 9, 33, 22, 49, 26, 77, 31, 6, 53, 0)
s = 26: (0, 72, 10, 49, 33, 51, 44, 71, 34, 5, 86, 0)
s = 27: (0, 95, 8, 43, 22, 34, 29, 138, 26, 4, 60, 0)
s = 28: (0, 87, 5, 24, 33, 32, 35, 92, 40, 8, 75, 0)
s = 29: (0, 77, 9, 40, 19, 58, 25, 155, 18, 8, 82, 0)
s = 30: (0, 60, 6, 40, 40, 54, 42, 114, 17, 4, 118, 0)
s = 31: (0, 85, 7, 33, 22, 45, 43, 144, 30, 6, 101, 0)
s = 32: (0, 77, 5, 54, 24, 61, 46, 81, 16, 9, 115, 0)
s = 33: (0, 60, 9, 39, 47, 62, 20, 84, 28, 5, 71, 0)
s = 34: (0, 115, 7, 59, 26, 30, 26, 65, 32, 4, 97, 0)
s = 35: (0, 62, 7, 38, 35, 61, 27, 130, 19, 6, 136, 0)
s = 36: (0, 129, 5, 24, 27, 46, 18, 101, 36, 6, 44, 0)
s = 37: (0, 42, 7, 49, 20, 60, 36, 124, 24, 5, 79, 0)
s = 38: (0, 80, 6, 57, 31, 44, 39, 79, 25, 5, 111, 0)
s = 39: (0, 85, 12, 33, 32, 37, 38, 102, 20, 7, 68, 0)
s = 40: (0, 97, 8, 35, 21, 46, 20, 111, 18, 9, 61, 0)
s = 41: (0, 80, 4, 27, 29, 48, 23, 57, 21, 4, 80, 0)
s = 42: (0, 79, 7, 55, 27, 44, 31, 72, 31, 6, 103, 0)
s = 43: (0, 74, 8, 30, 21, 61, 42, 130, 19, 8, 96, 0)
s = 44: (0, 113, 7, 39, 18, 36, 26, 147, 21, 4, 101, 0)
s = 45: (0, 52, 4, 35, 18, 53, 20, 67, 16, 7, 74, 0)
s = 46: (0, 61, 7, 29, 16, 65, 22, 128, 22, 7, 58, 0)
s = 47: (0, 80, 7, 31, 17, 36, 21, 138, 31, 5, 88, 0)
s = 48: (0, 46, 5, 55, 23, 62, 39, 81, 14, 9, 69, 0)
s = 49: (0, 103, 10, 44, 26, 40, 35, 70, 20, 4, 80, 0)
s = 50: (0, 88, 8, 65, 31, 30, 28, 103, 22, 6, 82, 0)
s = 51: (0, 89, 8, 47, 34, 24, 32, 75, 40, 9, 65, 0)
s = 52: (0, 71, 10, 24, 27, 26, 18, 63, 40, 7, 63, 0)
s = 53: (0, 71, 4, 42, 22, 50, 40, 79, 27, 7, 68, 0)
s = 54: (0, 72, 5, 38, 37, 48, 21, 99, 18, 10, 79, 0)
s = 55: (0, 64, 10, 44, 22, 54, 24, 73, 36, 8, 74, 0)
s = 56: (0, 58, 4, 45, 26, 62, 29, 70, 24, 8, 60, 0)
s = 57: (0, 66, 8, 25, 21, 45, 26, 63, 22, 6, 75, 0)
s = 58: (0, 44, 7, 27, 27, 29, 33, 91, 35, 6, 62, 0)
s = 59: (0, 101, 8, 41, 18, 76, 29, 94, 17, 5, 47, 0)
s = 60: (0, 68, 7, 37, 32, 33, 58, 92, 39, 7, 59, 0)
s = 61: (0, 98, 8, 53, 23, 39, 35, 114, 30, 9, 84, 0)
s = 62: (0, 114, 8, 44, 28, 56, 33, 148, 33, 6, 114, 0)
s = 63: (0, 84, 9, 38, 18, 38, 29, 63, 29, 4, 54, 0)
s = 64: (0, 81, 11, 31, 22, 55, 31, 132, 38, 6, 79, 0)
s = 65: (0, 124, 14, 32, 20, 43, 34, 75, 36, 4, 53, 0)
s = 66: (0, 64, 9, 28, 30, 59, 29, 58, 28, 10, 80, 0)
s = 67: (0, 103, 9, 35, 27, 46, 24, 83, 21, 4, 46, 0)
s = 68: (0, 109, 8, 41, 27, 49, 33, 94, 19, 5, 101, 0)
s = 69: (0, 46, 6, 41, 23, 40, 21, 63, 20, 4, 75, 0)
s = 70: (0, 97, 6, 38, 33, 50, 38, 85, 29, 5, 92, 0)
s = 71: (0, 57, 8, 54, 36, 35, 29, 60, 37, 4, 47, 0)
s = 72: (0, 84, 7, 47, 19, 27, 17, 102, 24, 10, 57, 0)
s = 73: (0, 80, 6, 21, 37, 32, 44, 78, 22, 8, 62, 0)
s = 74: (0, 121, 5, 70, 42, 29, 34, 131, 37, 6, 67, 0)
s = 75: (0, 59, 7, 41, 20, 52, 27, 78, 22, 8, 125, 0)
s = 76: (0, 70, 10, 38, 21, 44, 19, 89, 32, 5, 70, 0)
s = 77: (0, 75, 10, 24, 23, 32, 27, 82, 21, 6, 55, 0)
s = 78: (0, 72, 9, 33, 18, 52, 18, 91, 48, 6, 73, 0)
s = 79: (0, 65, 8, 41, 28, 55, 36, 69, 20, 5, 77, 0)
s = 80: (0, 78, 10, 38, 23, 40, 26, 97, 23, 6, 62, 0)
s = 81: (0, 85, 12, 42, 44, 48, 19, 110, 24, 4, 75, 0)
s = 82: (0, 108, 8, 36, 19, 44, 39, 83, 21, 7, 46, 0)
s = 83: (0, 82, 5, 43, 20, 42, 26, 76, 36, 5, 43, 0)
s = 84: (0, 71, 9, 49, 28, 50, 18, 99, 24, 5, 94, 0)
s = 85: (0, 65, 7, 34, 26, 27, 29, 73, 24, 4, 93, 0)
s = 86: (0, 98, 8, 35, 36, 51, 28, 87, 34, 7, 91, 0)
s = 87: (0, 74, 5, 36, 23, 44, 35, 85, 13, 7, 100, 0)
s = 88: (0, 63, 7, 60, 31, 33, 25, 112, 18, 6, 62, 0)
s = 89: (0, 55, 8, 26, 36, 51, 26, 134, 25, 7, 71, 0)
s = 90: (0, 93, 7, 39, 36, 28, 28, 82, 28, 7, 82, 0)
s = 91: (0, 73, 6, 34, 20, 25, 16, 126, 27, 5, 109, 0)
s = 92: (0, 67, 6, 30, 51, 63, 30, 193, 33, 4, 85, 0)
s = 93: (0, 89, 10, 30, 35, 67, 21, 131, 21, 5, 48, 0)
s = 94: (0, 58, 11, 29, 15, 28, 31, 87, 29, 8, 54, 0)
s = 95: (0, 90, 8, 66, 24, 38, 28, 83, 28, 6, 50, 0)
s = 96: (0, 114, 6, 58, 22, 33, 17, 138, 19, 5, 68, 0)
s = 97: (0, 93, 6, 22, 25, 49, 47, 85, 31, 5, 69, 0)
s = 98: (0, 123, 4, 44, 21, 36, 44, 128, 41, 4, 92, 0)
s = 99: (0, 48, 7, 33, 52, 32, 33, 90, 16, 4, 61, 0)
s = 100: (0, 85, 9, 43, 20, 54, 29, 126, 33, 8, 87, 0)
s = 101: (0, 82, 7, 59, 28, 47, 28, 74, 18, 8, 71, 0)
s = 102: (0, 103, 10, 30, 41, 30, 37, 66, 32, 4, 68, 0)
s = 103: (0, 60, 5, 24, 27, 32, 32, 80, 28, 4, 72, 0)
s = 104: (0, 51, 9, 27, 30, 52, 20, 52, 27, 5, 81, 0)
s = 105: (0, 91, 6, 22, 31, 38, 40, 88, 18, 8, 63, 0)
s = 106: (0, 61, 7, 25, 32, 59, 29, 117, 23, 5, 51, 0)
s = 107: (0, 62, 5, 25, 24, 57, 18, 67, 32, 5, 113, 0)
s = 108: (0, 71, 11, 28, 56, 47, 29, 139, 28, 8, 61, 0)
s = 109: (0, 86, 8, 48, 47, 41, 32, 98, 36, 4, 58, 0)
s = 110: (0, 81, 9, 35, 27, 35, 20, 122, 26, 7, 114, 0)
s = 111: (0, 81, 8, 40, 29, 66, 34, 99, 23, 7, 57, 0)
s = 112: (0, 135, 7, 35, 29, 28, 31, 91, 21, 5, 78, 0)
s = 113: (0, 115, 8, 44, 28, 61, 41, 75, 24, 8, 56, 0)
s = 114: (0, 118, 5, 29, 47, 42, 42, 123, 39, 6, 83, 0)
s = 115: (0, 57, 6, 60, 36, 56, 38, 118, 33, 4, 78, 0)
s = 116: (0, 73, 7, 30, 38, 30, 45, 132, 23, 9, 98, 0)
s = 117: (0, 84, 11, 54, 26, 70, 30, 71, 18, 7, 78, 0)
s = 118: (0, 100, 6, 46, 34, 27, 30, 155, 19, 5, 60, 0)
s = 119: (0, 59, 8, 22, 29, 32, 27, 53, 32, 7, 73, 0)
s = 120: (0, 101, 6, 47, 25, 57, 20, 68, 22, 6, 58, 0)
s = 121: (0, 102, 8, 38, 33, 44, 32, 55, 25, 7, 61, 0)
s = 122: (0, 45, 4, 58, 21, 33, 30, 131, 32, 4, 69, 0)
s = 123: (0, 119, 11, 21, 17, 43, 33, 69, 26, 8, 45, 0)
s = 124: (0, 48, 7, 30, 45, 40, 30, 80, 20, 5, 87, 0)
s = 125: (0, 90, 11, 23, 35, 62, 33, 93, 17, 5, 48, 0)
s = 126: (0, 100, 5, 37, 16, 50, 28, 61, 18, 5, 94, 0)
s = 127: (0, 66, 6, 22, 40, 34, 33, 104, 40, 6, 43, 0)
s = 128: (0, 86, 10, 64, 22, 40, 54, 140, 15, 6, 71, 0)
s = 129: (0, 82, 4, 42, 27, 55, 20, 131, 14, 7, 72, 0)
s = 130: (0, 67, 7, 62, 25, 53, 29, 96, 21, 9, 48, 0)
s = 131: (0, 68, 6, 33, 17, 60, 22, 80, 24, 10, 103, 0)
s = 132: (0, 72, 8, 34, 44, 55, 43, 81, 18, 7, 117, 0)
s = 133: (0, 105, 9, 51, 47, 36, 19, 154, 31, 6, 50, 0)
s = 134: (0, 79, 8, 41, 18, 45, 25, 109, 25, 6, 86, 0)
s = 135: (0, 78, 6, 34, 26, 30, 36, 109, 23, 7, 78, 0)
s = 136: (0, 81, 4, 37, 24, 55, 25, 64, 14, 4, 64, 0)
s = 137: (0, 70, 7, 43, 20, 35, 32, 66, 18, 10, 78, 0)
s = 138: (0, 59, 9, 51, 40, 39, 25, 93, 20, 6, 69, 0)
s = 139: (0, 121, 11, 35, 22, 38, 23, 160, 39, 7, 67, 0)
s = 140: (0, 98, 10, 33, 33, 57, 18, 65, 20, 7, 53, 0)
s = 141: (0, 66, 13, 59, 20, 31, 21, 82, 33, 7, 57, 0)
s = 142: (0, 63, 6, 29, 28, 48, 35, 102, 31, 10, 62, 0)
s = 143: (0, 84, 10, 36, 27, 31, 26, 88, 30, 7, 95, 0)
s = 144: (0, 98, 8, 40, 21, 35, 34, 103, 30, 6, 98, 0)
s = 145: (0, 96, 7, 46, 23, 52, 40, 141, 21, 10, 110, 0)
s = 146: (0, 46, 6, 51, 28, 43, 45, 86, 36, 8, 50, 0)
s = 147: (0, 51, 8, 31, 19, 43, 41, 109, 29, 5, 69, 0)
s = 148: (0, 94, 5, 37, 20, 37, 26, 75, 18, 8, 115, 0)
s = 149: (0, 44, 11, 67, 21, 27, 43, 131, 22, 9, 50, 0)
s = 150: (0, 113, 7, 39, 26, 33, 36, 65, 28, 8, 63, 0)
s = 151: (0, 105, 6, 38, 21, 42, 32, 122, 34, 6, 79, 0)
s = 152: (0, 95, 10, 54, 17, 35, 27, 98, 22, 7, 57, 0)
s = 153: (0, 43, 6, 37, 32, 35, 19, 133, 18, 5, 58, 0)
s = 154: (0, 81, 7, 31, 16, 43, 46, 111, 25, 8, 86, 0)
s = 155: (0, 64, 8, 25, 23, 50, 16, 62, 26, 6, 52, 0)
s = 156: (0, 112, 10, 42, 30, 58, 16, 97, 22, 5, 68, 0)
s = 157: (0, 71, 7, 49, 25, 61, 21, 68, 21, 5, 58, 0)
s = 158: (0, 105, 6, 32, 35, 66, 37, 97, 20, 4, 69, 0)
s = 159: (0, 63, 7, 27, 50, 32, 22, 131, 14, 4, 48, 0)
s = 160: (0, 64, 9, 66, 20, 54, 24, 105, 36, 7, 93, 0)
s = 161: (0, 82, 9, 34, 39, 52, 32, 149, 25, 6, 72, 0)
s = 162: (0, 67, 5, 37, 35, 44, 38, 73, 25, 9, 80, 0)
s = 163: (0, 94, 8, 41, 30, 36, 24, 100, 28, 6, 81, 0)
s = 164: (0, 92, 8, 29, 41, 45, 26, 81, 21, 8, 66, 0)
s = 165: (0, 59, 6, 45, 36, 30, 19, 100, 30, 4, 66, 0)
s = 166: (0, 89, 5, 31, 22, 58, 25, 104, 24, 6, 67, 0)
s = 167: (0, 60, 5, 33, 38, 53, 35, 88, 30, 5, 59, 0)
s = 168: (0, 94, 7, 53, 29, 45, 24, 136, 23, 5, 115, 0)
s = 169: (0, 95, 6, 40, 43, 34, 33, 104, 24, 5, 61, 0)
s = 170: (0, 57, 7, 41, 35, 51, 20, 70, 29, 8, 42, 0)
s = 171: (0, 69, 11, 43, 23, 39, 35, 87, 36, 6, 87, 0)
s = 172: (0, 116, 7, 50, 19, 34, 35, 148, 16, 5, 87, 0)
s = 173: (0, 106, 9, 28, 24, 66, 35, 96, 20, 9, 49, 0)
s = 174: (0, 73, 7, 32, 21, 67, 29, 75, 23, 8, 52, 0)
s = 175: (0, 66, 8, 37, 28, 50, 33, 115, 37, 8, 89, 0)
s = 176: (0, 96, 8, 29, 19, 35, 23, 119, 27, 7, 76, 0)
s = 177: (0, 75, 10, 23, 27, 45, 20, 79, 25, 7, 70, 0)
s = 178: (0, 92, 13, 31, 24, 47, 32, 61, 31, 8, 88, 0)
s = 179: (0, 88, 10, 28, 32, 42, 30, 99, 22, 4, 55, 0)
s = 180: (0, 66, 8, 50, 26, 67, 29, 83, 19, 4, 45, 0)
s = 181: (0, 81, 4, 46, 31, 56, 35, 110, 19, 6, 94, 0)
s = 182: (0, 60, 6, 32, 23, 44, 28, 61, 32, 8, 57, 0)
s = 183: (0, 54, 11, 37, 29, 47, 31, 62, 37, 7, 71, 0)
s = 184: (0, 68, 7, 57, 38, 53, 25, 97, 23, 10, 42, 0)
s = 185: (0, 85, 7, 51, 33, 37, 27, 72, 27, 4, 71, 0)
s = 186: (0, 103, 7, 45, 19, 35, 21, 86, 20, 4, 121, 0)
s = 187: (0, 115, 7, 38, 40, 34, 38, 151, 36, 7, 92, 0)
s = 188: (0, 95, 6, 32, 21, 63, 30, 86, 26, 7, 116, 0)
s = 189: (0, 63, 13, 55, 22, 35, 34, 66, 29, 6, 120, 0)
s = 190: (0, 72, 8, 41, 25, 53, 35, 68, 29, 6, 81, 0)
s = 191: (0, 50, 8, 51, 23, 50, 48, 104, 33, 5, 106, 0)
s = 192: (0, 96, 6, 51, 26, 40, 49, 67, 36, 8, 56, 0)
s = 193: (0, 54, 6, 63, 38, 30, 48, 120, 20, 7, 76, 0)
s = 194: (0, 92, 5, 37, 28, 42, 24, 130, 26, 4, 91, 0)
s = 195: (0, 70, 6, 52, 21, 34, 25, 62, 18, 6, 76, 0)
s = 196: (0, 72, 9, 29, 37, 33, 26, 98, 29, 6, 74, 0)
s = 197: (0, 59, 7, 28, 43, 28, 17, 79, 21, 4, 109, 0)
s = 198: (0, 99, 10, 51, 22, 51, 27, 126, 41, 7, 60, 0)
s = 199: (0, 70, 5, 34, 19, 33, 25, 101, 32, 4, 90, 0)
s = 200: (0, 123, 9, 62, 24, 31, 17, 89, 18, 6, 73, 0)
************************************************************************
ES/LS-VALUES:
jobnr.   ES(i)    LS(i)
------------------------------------------------------------------------
  0        0        0
  1        0       65
  2        0       64
  3        0       51
  4        5       62
  5        2       67
  6        9       66
  7        5       57
  8       17       74
  9       10       76
 10       17       70
 11       24       78
************************************************************************
BIG-M-VALUES:
M1 = 45, M2 = 374
************************************************************************
